NAME
ROWS
 N  OBJ
 G  c1
 G  c2
 G  c3
 G  c4
 G  c5
 G  c6
 G  c7
 G  c8
 G  c9
 G  c10
 G  c11
 G  c12
 G  c13
 G  c14
 G  c15
 G  c16
 G  c17
 G  c18
 G  c19
 G  c20
 G  c21
 G  c22
 G  c23
 G  c24
 G  c25
 G  c26
 G  c27
 G  c28
 G  c29
 G  c30
 G  c31
 G  c32
 G  c33
 G  c34
 G  c35
 G  c36
 G  c37
 G  c38
 G  c39
 G  c40
 G  c41
 G  c42
 G  c43
 G  c44
 G  c45
 G  c46
 G  c47
 G  c48
 G  c49
 G  c50
 G  c51
 G  c52
 G  c53
 G  c54
 G  c55
 G  c56
 G  c57
 G  c58
 G  c59
 G  c60
COLUMNS
    MARKER    'MARKER'                 'INTORG'
    x[1]      c1        1
    x[1]      c8        1
    x[1]      c15       1
    x[1]      c35       1
    x[1]      c43       1
    x[1]      c46       1
    x[1]      c47       1
    x[1]      c55       1
    x[1]      c56       1
    x[1]      c59       1
    x[1]      OBJ       1
    x[2]      c2        1
    x[2]      c17       1
    x[2]      c25       1
    x[2]      c34       1
    x[2]      c52       1
    x[2]      c54       1
    x[2]      OBJ       1
    x[3]      c3        1
    x[3]      c22       1
    x[3]      c26       1
    x[3]      c28       1
    x[3]      c34       1
    x[3]      c35       1
    x[3]      c45       1
    x[3]      c51       1
    x[3]      c52       1
    x[3]      OBJ       1
    x[4]      c4        1
    x[4]      c16       1
    x[4]      c34       1
    x[4]      c39       1
    x[4]      c43       1
    x[4]      c47       1
    x[4]      c51       1
    x[4]      c52       1
    x[4]      c53       1
    x[4]      c57       1
    x[4]      OBJ       1
    x[5]      c5        1
    x[5]      c6        1
    x[5]      c8        1
    x[5]      c12       1
    x[5]      c33       1
    x[5]      c42       1
    x[5]      c60       1
    x[5]      OBJ       1
    x[6]      c5        1
    x[6]      c6        1
    x[6]      c9        1
    x[6]      c17       1
    x[6]      c22       1
    x[6]      c50       1
    x[6]      c59       1
    x[6]      OBJ       1
    x[7]      c7        1
    x[7]      c9        1
    x[7]      c28       1
    x[7]      c30       1
    x[7]      c32       1
    x[7]      c35       1
    x[7]      c50       1
    x[7]      c57       1
    x[7]      OBJ       1
    x[8]      c1        1
    x[8]      c5        1
    x[8]      c8        1
    x[8]      c15       1
    x[8]      c16       1
    x[8]      c17       1
    x[8]      c21       1
    x[8]      c23       1
    x[8]      c52       1
    x[8]      OBJ       1
    x[9]      c6        1
    x[9]      c7        1
    x[9]      c9        1
    x[9]      c12       1
    x[9]      c26       1
    x[9]      c29       1
    x[9]      c35       1
    x[9]      c58       1
    x[9]      OBJ       1
    x[10]     c10       1
    x[10]     c21       1
    x[10]     c22       1
    x[10]     c24       1
    x[10]     c27       1
    x[10]     c42       1
    x[10]     c47       1
    x[10]     c50       1
    x[10]     c56       1
    x[10]     c58       1
    x[10]     OBJ       1
    x[11]     c11       1
    x[11]     c35       1
    x[11]     c50       1
    x[11]     OBJ       1
    x[12]     c5        1
    x[12]     c9        1
    x[12]     c12       1
    x[12]     c13       1
    x[12]     c20       1
    x[12]     c29       1
    x[12]     c31       1
    x[12]     c40       1
    x[12]     c42       1
    x[12]     c44       1
    x[12]     c45       1
    x[12]     c51       1
    x[12]     OBJ       1
    x[13]     c12       1
    x[13]     c13       1
    x[13]     c20       1
    x[13]     c26       1
    x[13]     c31       1
    x[13]     c40       1
    x[13]     c42       1
    x[13]     OBJ       1
    x[14]     c14       1
    x[14]     c32       1
    x[14]     c38       1
    x[14]     c42       1
    x[14]     c46       1
    x[14]     c53       1
    x[14]     c56       1
    x[14]     OBJ       1
    x[15]     c1        1
    x[15]     c8        1
    x[15]     c15       1
    x[15]     c29       1
    x[15]     c36       1
    x[15]     OBJ       1
    x[16]     c4        1
    x[16]     c8        1
    x[16]     c16       1
    x[16]     c18       1
    x[16]     c34       1
    x[16]     c37       1
    x[16]     c38       1
    x[16]     c39       1
    x[16]     c40       1
    x[16]     c44       1
    x[16]     OBJ       1
    x[17]     c2        1
    x[17]     c6        1
    x[17]     c8        1
    x[17]     c17       1
    x[17]     c23       1
    x[17]     c25       1
    x[17]     c28       1
    x[17]     c48       1
    x[17]     OBJ       1
    x[18]     c16       1
    x[18]     c18       1
    x[18]     c39       1
    x[18]     c50       1
    x[18]     c56       1
    x[18]     c60       1
    x[18]     OBJ       1
    x[19]     c19       1
    x[19]     c39       1
    x[19]     c42       1
    x[19]     c47       1
    x[19]     c54       1
    x[19]     OBJ       1
    x[20]     c12       1
    x[20]     c13       1
    x[20]     c20       1
    x[20]     c25       1
    x[20]     c49       1
    x[20]     c60       1
    x[20]     OBJ       1
    x[21]     c8        1
    x[21]     c10       1
    x[21]     c21       1
    x[21]     c26       1
    x[21]     c42       1
    x[21]     c47       1
    x[21]     c55       1
    x[21]     OBJ       1
    x[22]     c3        1
    x[22]     c6        1
    x[22]     c10       1
    x[22]     c22       1
    x[22]     c24       1
    x[22]     c37       1
    x[22]     c41       1
    x[22]     c44       1
    x[22]     c60       1
    x[22]     OBJ       1
    x[23]     c8        1
    x[23]     c17       1
    x[23]     c23       1
    x[23]     c37       1
    x[23]     c52       1
    x[23]     c54       1
    x[23]     c59       1
    x[23]     OBJ       1
    x[24]     c10       1
    x[24]     c22       1
    x[24]     c24       1
    x[24]     c26       1
    x[24]     c27       1
    x[24]     c44       1
    x[24]     c50       1
    x[24]     c52       1
    x[24]     c55       1
    x[24]     OBJ       1
    x[25]     c2        1
    x[25]     c17       1
    x[25]     c20       1
    x[25]     c25       1
    x[25]     c37       1
    x[25]     c48       1
    x[25]     c49       1
    x[25]     OBJ       1
    x[26]     c3        1
    x[26]     c9        1
    x[26]     c13       1
    x[26]     c21       1
    x[26]     c24       1
    x[26]     c26       1
    x[26]     c49       1
    x[26]     c51       1
    x[26]     c56       1
    x[26]     OBJ       1
    x[27]     c10       1
    x[27]     c24       1
    x[27]     c27       1
    x[27]     c29       1
    x[27]     c53       1
    x[27]     OBJ       1
    x[28]     c3        1
    x[28]     c7        1
    x[28]     c17       1
    x[28]     c28       1
    x[28]     c31       1
    x[28]     OBJ       1
    x[29]     c9        1
    x[29]     c12       1
    x[29]     c15       1
    x[29]     c27       1
    x[29]     c29       1
    x[29]     c34       1
    x[29]     c52       1
    x[29]     c59       1
    x[29]     OBJ       1
    x[30]     c7        1
    x[30]     c30       1
    x[30]     c42       1
    x[30]     OBJ       1
    x[31]     c12       1
    x[31]     c13       1
    x[31]     c28       1
    x[31]     c31       1
    x[31]     c43       1
    x[31]     c51       1
    x[31]     c57       1
    x[31]     c59       1
    x[31]     OBJ       1
    x[32]     c7        1
    x[32]     c14       1
    x[32]     c32       1
    x[32]     c49       1
    x[32]     c54       1
    x[32]     OBJ       1
    x[33]     c5        1
    x[33]     c33       1
    x[33]     c34       1
    x[33]     c60       1
    x[33]     OBJ       1
    x[34]     c2        1
    x[34]     c3        1
    x[34]     c4        1
    x[34]     c16       1
    x[34]     c29       1
    x[34]     c33       1
    x[34]     c34       1
    x[34]     c45       1
    x[34]     OBJ       1
    x[35]     c1        1
    x[35]     c3        1
    x[35]     c7        1
    x[35]     c9        1
    x[35]     c11       1
    x[35]     c35       1
    x[35]     c55       1
    x[35]     c57       1
    x[35]     OBJ       1
    x[36]     c15       1
    x[36]     c36       1
    x[36]     c39       1
    x[36]     c44       1
    x[36]     c57       1
    x[36]     OBJ       1
    x[37]     c16       1
    x[37]     c22       1
    x[37]     c23       1
    x[37]     c25       1
    x[37]     c37       1
    x[37]     c43       1
    x[37]     c55       1
    x[37]     OBJ       1
    x[38]     c14       1
    x[38]     c16       1
    x[38]     c38       1
    x[38]     c45       1
    x[38]     OBJ       1
    x[39]     c4        1
    x[39]     c16       1
    x[39]     c18       1
    x[39]     c19       1
    x[39]     c36       1
    x[39]     c39       1
    x[39]     c40       1
    x[39]     c43       1
    x[39]     c45       1
    x[39]     c59       1
    x[39]     OBJ       1
    x[40]     c12       1
    x[40]     c13       1
    x[40]     c16       1
    x[40]     c39       1
    x[40]     c40       1
    x[40]     OBJ       1
    x[41]     c22       1
    x[41]     c41       1
    x[41]     c46       1
    x[41]     OBJ       1
    x[42]     c5        1
    x[42]     c10       1
    x[42]     c12       1
    x[42]     c13       1
    x[42]     c14       1
    x[42]     c19       1
    x[42]     c21       1
    x[42]     c30       1
    x[42]     c42       1
    x[42]     OBJ       1
    x[43]     c1        1
    x[43]     c4        1
    x[43]     c31       1
    x[43]     c37       1
    x[43]     c39       1
    x[43]     c43       1
    x[43]     c51       1
    x[43]     OBJ       1
    x[44]     c12       1
    x[44]     c16       1
    x[44]     c22       1
    x[44]     c24       1
    x[44]     c36       1
    x[44]     c44       1
    x[44]     c47       1
    x[44]     c56       1
    x[44]     OBJ       1
    x[45]     c3        1
    x[45]     c12       1
    x[45]     c34       1
    x[45]     c38       1
    x[45]     c39       1
    x[45]     c45       1
    x[45]     c55       1
    x[45]     OBJ       1
    x[46]     c1        1
    x[46]     c14       1
    x[46]     c41       1
    x[46]     c46       1
    x[46]     OBJ       1
    x[47]     c1        1
    x[47]     c4        1
    x[47]     c10       1
    x[47]     c19       1
    x[47]     c21       1
    x[47]     c44       1
    x[47]     c47       1
    x[47]     c49       1
    x[47]     c51       1
    x[47]     OBJ       1
    x[48]     c17       1
    x[48]     c25       1
    x[48]     c48       1
    x[48]     c55       1
    x[48]     OBJ       1
    x[49]     c20       1
    x[49]     c25       1
    x[49]     c26       1
    x[49]     c32       1
    x[49]     c47       1
    x[49]     c49       1
    x[49]     OBJ       1
    x[50]     c6        1
    x[50]     c7        1
    x[50]     c10       1
    x[50]     c11       1
    x[50]     c18       1
    x[50]     c24       1
    x[50]     c50       1
    x[50]     OBJ       1
    x[51]     c3        1
    x[51]     c4        1
    x[51]     c12       1
    x[51]     c26       1
    x[51]     c31       1
    x[51]     c43       1
    x[51]     c47       1
    x[51]     c51       1
    x[51]     OBJ       1
    x[52]     c2        1
    x[52]     c3        1
    x[52]     c4        1
    x[52]     c8        1
    x[52]     c23       1
    x[52]     c24       1
    x[52]     c29       1
    x[52]     c52       1
    x[52]     c55       1
    x[52]     OBJ       1
    x[53]     c4        1
    x[53]     c14       1
    x[53]     c27       1
    x[53]     c53       1
    x[53]     OBJ       1
    x[54]     c2        1
    x[54]     c19       1
    x[54]     c23       1
    x[54]     c32       1
    x[54]     c54       1
    x[54]     OBJ       1
    x[55]     c1        1
    x[55]     c21       1
    x[55]     c24       1
    x[55]     c35       1
    x[55]     c37       1
    x[55]     c45       1
    x[55]     c48       1
    x[55]     c52       1
    x[55]     c55       1
    x[55]     OBJ       1
    x[56]     c1        1
    x[56]     c10       1
    x[56]     c14       1
    x[56]     c18       1
    x[56]     c26       1
    x[56]     c44       1
    x[56]     c56       1
    x[56]     OBJ       1
    x[57]     c4        1
    x[57]     c7        1
    x[57]     c31       1
    x[57]     c35       1
    x[57]     c36       1
    x[57]     c57       1
    x[57]     OBJ       1
    x[58]     c9        1
    x[58]     c10       1
    x[58]     c58       1
    x[58]     OBJ       1
    x[59]     c1        1
    x[59]     c6        1
    x[59]     c23       1
    x[59]     c29       1
    x[59]     c31       1
    x[59]     c39       1
    x[59]     c59       1
    x[59]     OBJ       1
    x[60]     c5        1
    x[60]     c18       1
    x[60]     c20       1
    x[60]     c22       1
    x[60]     c33       1
    x[60]     c60       1
    x[60]     OBJ       1
    MARKER    'MARKER'                 'INTEND'
RHS
    rhs       c1        1
    rhs       c2        1
    rhs       c3        1
    rhs       c4        1
    rhs       c5        1
    rhs       c6        1
    rhs       c7        1
    rhs       c8        1
    rhs       c9        1
    rhs       c10       1
    rhs       c11       1
    rhs       c12       1
    rhs       c13       1
    rhs       c14       1
    rhs       c15       1
    rhs       c16       1
    rhs       c17       1
    rhs       c18       1
    rhs       c19       1
    rhs       c20       1
    rhs       c21       1
    rhs       c22       1
    rhs       c23       1
    rhs       c24       1
    rhs       c25       1
    rhs       c26       1
    rhs       c27       1
    rhs       c28       1
    rhs       c29       1
    rhs       c30       1
    rhs       c31       1
    rhs       c32       1
    rhs       c33       1
    rhs       c34       1
    rhs       c35       1
    rhs       c36       1
    rhs       c37       1
    rhs       c38       1
    rhs       c39       1
    rhs       c40       1
    rhs       c41       1
    rhs       c42       1
    rhs       c43       1
    rhs       c44       1
    rhs       c45       1
    rhs       c46       1
    rhs       c47       1
    rhs       c48       1
    rhs       c49       1
    rhs       c50       1
    rhs       c51       1
    rhs       c52       1
    rhs       c53       1
    rhs       c54       1
    rhs       c55       1
    rhs       c56       1
    rhs       c57       1
    rhs       c58       1
    rhs       c59       1
    rhs       c60       1
RANGES
BOUNDS
 BV bounds    x[1]
 BV bounds    x[2]
 BV bounds    x[3]
 BV bounds    x[4]
 BV bounds    x[5]
 BV bounds    x[6]
 BV bounds    x[7]
 BV bounds    x[8]
 BV bounds    x[9]
 BV bounds    x[10]
 BV bounds    x[11]
 BV bounds    x[12]
 BV bounds    x[13]
 BV bounds    x[14]
 BV bounds    x[15]
 BV bounds    x[16]
 BV bounds    x[17]
 BV bounds    x[18]
 BV bounds    x[19]
 BV bounds    x[20]
 BV bounds    x[21]
 BV bounds    x[22]
 BV bounds    x[23]
 BV bounds    x[24]
 BV bounds    x[25]
 BV bounds    x[26]
 BV bounds    x[27]
 BV bounds    x[28]
 BV bounds    x[29]
 BV bounds    x[30]
 BV bounds    x[31]
 BV bounds    x[32]
 BV bounds    x[33]
 BV bounds    x[34]
 BV bounds    x[35]
 BV bounds    x[36]
 BV bounds    x[37]
 BV bounds    x[38]
 BV bounds    x[39]
 BV bounds    x[40]
 BV bounds    x[41]
 BV bounds    x[42]
 BV bounds    x[43]
 BV bounds    x[44]
 BV bounds    x[45]
 BV bounds    x[46]
 BV bounds    x[47]
 BV bounds    x[48]
 BV bounds    x[49]
 BV bounds    x[50]
 BV bounds    x[51]
 BV bounds    x[52]
 BV bounds    x[53]
 BV bounds    x[54]
 BV bounds    x[55]
 BV bounds    x[56]
 BV bounds    x[57]
 BV bounds    x[58]
 BV bounds    x[59]
 BV bounds    x[60]
ENDATA
